
Gurobi 6.5.2 (win64) logging started 07/23/16 02:31:10


Gurobi 6.5.2 (win64) logging started 07/23/16 02:31:10

Optimize a model with 7065 rows, 1083 columns and 16364 nonzeros
Coefficient statistics:
  Matrix range    [4e-06, 1e+03]
  Objective range [1e+00, 1e+00]
  Bounds range    [1e+00, 1e+00]
  RHS range       [1e+00, 1e+03]
Found heuristic solution: objective 1047.99
Presolve removed 7044 rows and 1062 columns
Presolve time: 0.00s
Presolved: 21 rows, 21 columns, 63 nonzeros
Variable types: 21 continuous, 0 integer (0 binary)

Root relaxation: objective 1.525785e+02, 14 iterations, 0.00 seconds

    Nodes    |    Current Node    |     Objective Bounds      |     Work
 Expl Unexpl |  Obj  Depth IntInf | Incumbent    BestBd   Gap | It/Node Time

*    0     0               0     152.5785438  152.57854  0.00%     -    0s

Explored 0 nodes (14 simplex iterations) in 0.01 seconds
Thread count was 8 (of 8 available processors)

Optimal solution found (tolerance 1.00e-04)
Best objective 1.525785438394e+02, best bound 1.525785438394e+02, gap 0.0%

Wrote requested result file 'H2\instance2\\Results2EC_Sol2.lp'


Gurobi 6.5.2 (win64) logging started 07/24/16 16:42:05


Gurobi 6.5.2 (win64) logging started 07/24/16 16:42:05

Optimize a model with 4937 rows, 923 columns and 12301 nonzeros
Coefficient statistics:
  Matrix range    [1e-03, 1e+03]
  Objective range [1e+00, 1e+00]
  Bounds range    [1e+00, 1e+00]
  RHS range       [1e+00, 1e+03]
Presolve removed 4937 rows and 923 columns
Presolve time: 0.00s
Presolve: All rows and columns removed

Explored 0 nodes (0 simplex iterations) in 0.01 seconds
Thread count was 1 (of 8 available processors)

Optimal solution found (tolerance 1.00e-04)
Best objective 2.400000000000e+01, best bound 2.400000000000e+01, gap 0.0%

Wrote requested result file 'H2\instance2\\Results2EC_Sol2.lp'

